NAME: cuum270.tsp
TYPE: TSP
COMMENT: User-generated TSP file
DIMENSION: 270
EDGE_WEIGHT_TYPE: EUC_2D
NODE_COORD_SECTION
1 268.0 43.0
2 42.0 129.0
3 177.0 14.0
4 53.0 9.0
5 113.0 67.0
6 209.0 158.0
7 224.0 11.0
8 153.0 28.0
9 266.0 21.0
10 86.0 113.0
11 124.0 186.0
12 198.0 249.0
13 37.0 57.0
14 123.0 2.0
15 201.0 215.0
16 223.0 15.0
17 6.0 81.0
18 240.0 117.0
19 215.0 109.0
20 216.0 236.0
21 60.0 149.0
22 37.0 266.0
23 156.0 113.0
24 240.0 208.0
25 25.0 71.0
26 243.0 82.0
27 66.0 194.0
28 75.0 251.0
29 115.0 32.0
30 132.0 34.0
31 167.0 220.0
32 157.0 34.0
33 245.0 235.0
34 157.0 114.0
35 51.0 208.0
36 259.0 262.0
37 1.0 170.0
38 269.0 177.0
39 8.0 65.0
40 248.0 111.0
41 235.0 193.0
42 234.0 129.0
43 140.0 239.0
44 219.0 127.0
45 163.0 71.0
46 155.0 254.0
47 270.0 8.0
48 150.0 167.0
49 34.0 149.0
50 260.0 74.0
51 175.0 255.0
52 20.0 224.0
53 14.0 110.0
54 51.0 135.0
55 51.0 1.0
56 266.0 222.0
57 37.0 224.0
58 48.0 120.0
59 61.0 77.0
60 111.0 7.0
61 221.0 193.0
62 29.0 82.0
63 69.0 174.0
64 14.0 36.0
65 228.0 183.0
66 23.0 181.0
67 54.0 161.0
68 167.0 174.0
69 183.0 166.0
70 133.0 240.0
71 258.0 189.0
72 63.0 51.0
73 25.0 84.0
74 226.0 199.0
75 267.0 86.0
76 207.0 224.0
77 66.0 86.0
78 117.0 229.0
79 102.0 139.0
80 186.0 27.0
81 268.0 2.0
82 101.0 54.0
83 222.0 209.0
84 164.0 96.0
85 179.0 56.0
86 248.0 198.0
87 34.0 135.0
88 182.0 204.0
89 260.0 50.0
90 114.0 71.0
91 43.0 110.0
92 262.0 192.0
93 150.0 115.0
94 157.0 182.0
95 36.0 68.0
96 55.0 169.0
97 243.0 224.0
98 2.0 84.0
99 234.0 216.0
100 92.0 136.0
101 101.0 6.0
102 185.0 17.0
103 168.0 240.0
104 137.0 39.0
105 128.0 42.0
106 153.0 10.0
107 137.0 231.0
108 155.0 258.0
109 189.0 69.0
110 3.0 265.0
111 131.0 7.0
112 47.0 247.0
113 26.0 202.0
114 77.0 111.0
115 31.0 259.0
116 197.0 21.0
117 93.0 73.0
118 202.0 148.0
119 121.0 68.0
120 182.0 250.0
121 85.0 100.0
122 197.0 62.0
123 9.0 31.0
124 11.0 191.0
125 225.0 12.0
126 111.0 46.0
127 65.0 201.0
128 160.0 90.0
129 36.0 164.0
130 121.0 116.0
131 87.0 196.0
132 253.0 144.0
133 157.0 30.0
134 38.0 225.0
135 6.0 54.0
136 204.0 128.0
137 210.0 240.0
138 128.0 79.0
139 249.0 57.0
140 192.0 205.0
141 111.0 89.0
142 270.0 137.0
143 170.0 118.0
144 218.0 5.0
145 166.0 31.0
146 174.0 79.0
147 76.0 43.0
148 198.0 187.0
149 220.0 256.0
150 226.0 68.0
151 121.0 173.0
152 148.0 45.0
153 59.0 43.0
154 127.0 226.0
155 233.0 61.0
156 112.0 245.0
157 147.0 257.0
158 147.0 13.0
159 166.0 189.0
160 184.0 201.0
161 193.0 18.0
162 144.0 231.0
163 81.0 151.0
164 259.0 162.0
165 97.0 239.0
166 211.0 267.0
167 85.0 252.0
168 145.0 202.0
169 174.0 151.0
170 60.0 101.0
171 194.0 77.0
172 32.0 126.0
173 98.0 127.0
174 163.0 265.0
175 216.0 16.0
176 103.0 138.0
177 163.0 258.0
178 266.0 213.0
179 46.0 120.0
180 232.0 246.0
181 168.0 12.0
182 84.0 22.0
183 175.0 188.0
184 161.0 220.0
185 64.0 21.0
186 141.0 218.0
187 224.0 261.0
188 167.0 247.0
189 185.0 164.0
190 68.0 222.0
191 197.0 80.0
192 106.0 224.0
193 243.0 55.0
194 238.0 128.0
195 133.0 247.0
196 112.0 261.0
197 9.0 95.0
198 205.0 205.0
199 103.0 111.0
200 239.0 215.0
201 99.0 266.0
202 156.0 90.0
203 140.0 55.0
204 217.0 33.0
205 19.0 244.0
206 267.0 21.0
207 56.0 164.0
208 219.0 233.0
209 220.0 74.0
210 244.0 81.0
211 10.0 55.0
212 234.0 9.0
213 267.0 172.0
214 89.0 202.0
215 118.0 162.0
216 21.0 226.0
217 93.0 231.0
218 16.0 94.0
219 121.0 60.0
220 15.0 71.0
221 40.0 88.0
222 107.0 205.0
223 64.0 191.0
224 129.0 78.0
225 211.0 212.0
226 263.0 256.0
227 101.0 28.0
228 160.0 2.0
229 253.0 262.0
230 155.0 70.0
231 262.0 219.0
232 237.0 243.0
233 168.0 204.0
234 194.0 123.0
235 154.0 120.0
236 65.0 66.0
237 96.0 105.0
238 96.0 165.0
239 220.0 213.0
240 114.0 194.0
241 102.0 161.0
242 203.0 200.0
243 191.0 22.0
244 181.0 150.0
245 187.0 36.0
246 85.0 198.0
247 204.0 215.0
248 137.0 46.0
249 98.0 107.0
250 244.0 257.0
251 32.0 185.0
252 151.0 266.0
253 48.0 198.0
254 268.0 205.0
255 112.0 110.0
256 222.0 16.0
257 243.0 269.0
258 230.0 9.0
259 123.0 11.0
260 163.0 89.0
261 240.0 161.0
262 258.0 78.0
263 34.0 231.0
264 181.0 112.0
265 73.0 68.0
266 47.0 261.0
267 43.0 130.0
268 146.0 196.0
269 94.0 141.0
270 6.0 240.0
EOF





